Traveling Salesman Problem/TSP_generados/Aleatorio1620390862_6.tsp
NAME: Aleatorio1620390862_6.tsp
COMMENT: Randomly generated scenario
TYPE: TSP
DIMENSION: 6
EDGE_WEIGHT_TYPE: ATT
NODE_COORD_SECTION
1 2.74 3.84
2 38.79 12.88
3 8.02 34.74
4 31.9 30.78
5 14.02 21.27
6 16.47 16.26
