Traveling Salesman Problem/TSP_generados/Aleatorio1620390862_6.opt.tour
NAME: Aleatorio1620390862_6.opt.tour
COMMENT: Optimal solution for Aleatorio1620390862_6 (119.38941426081746)
TYPE: TOUR
DIMENSION: 6
TOUR_SECTION
1 6 5 3 4 2
-1
EOF
